57 57
18 15
10 22
50 22
56 3
51 13
26 15
6 3
11 6
38 25
45 11
57 27
13 7
19 17
28 4
15 21
5 17
43 14
54 16
42 4
20 29
49 9
37 2
8 13
34 27
55 16
4 18
21 20
25 10
23 12
41 9
33 24
9 21
47 2
17 5
40 19
48 6
27 8
53 8
14 7
2 23
32 11
22 24
16 20
36 26
46 23
31 26
3 28
44 14
24 1
7 10
1 25
39 1
30 5
35 19
52 12
29 28
12 18
